9486340 3966920 547 686
9486328 3966264 562 687
9486036 3966768 578 688
9485844 3966472 531 689
9486260 3966980 547 690
9486184 3966992 594 691
9486144 3966772 547 692
9486264 3966482 500 693
9486164 3966932 516 694
9486356 3966928 484 695
9486334 3967017 594 696
9484976 3966588 531 697
9485984 3966992 500 698
9486304 3966352 516 699
9486356 3966828 531 700
9486276 3966588 515 701
9486332 3967016 547 702
9486196 3966848 469 703
9486316 3966908 453 704
9486076 3966788 516 705
9486300 3966800 531 706
9486268 3966584 531 707
9486352 3966376 485 708
9486176 3967088 562 709
9486328 3966764 563 710
9485548 3966524 515 711
9486256 3967028 532 712
9486256 3967028 516 713
9485946 3966223 531 714
9486114 3966457 547 715
